p tw 40 84
0 1
0 27
0 8
0 32
1 12
1 34
1 28
1 25
2 3
2 19
2 21
2 10
2 33
2 36
3 8
3 29
3 7
4 5
4 9
4 7
4 21
4 28
4 8
4 15
5 21
5 32
5 10
5 6
5 26
5 22
6 7
6 23
6 24
6 16
7 17
7 21
7 30
8 16
9 36
9 19
9 39
9 22
10 11
10 18
10 31
10 21
10 25
10 15
11 29
11 22
12 13
12 21
12 28
14 15
15 23
15 32
15 30
16 17
16 22
16 20
17 24
17 37
18 33
18 30
19 20
19 26
20 31
20 32
21 30
21 26
22 36
24 34
25 26
25 39
26 34
26 35
27 28
27 35
27 30
28 33
31 35
31 38
32 36
32 38
